p tw 121 18151 2 
1 3 
1 4 
1 5 
1 6 
1 7 
1 8 
1 9 
1 10 
1 11 
1 12 
1 22 
1 23 
1 32 
1 34 
1 42 
1 45 
1 52 
1 56 
1 62 
1 67 
1 72 
1 78 
1 82 
1 89 
1 92 
1 100 
1 102 
1 111 
1 112 
2 3 
2 4 
2 5 
2 6 
2 7 
2 8 
2 9 
2 10 
2 11 
2 12 
2 13 
2 24 
2 33 
2 35 
2 43 
2 46 
2 53 
2 57 
2 63 
2 68 
2 73 
2 79 
2 83 
2 90 
2 93 
2 101 
2 103 
2 112 
2 113 
3 4 
3 5 
3 6 
3 7 
3 8 
3 9 
3 10 
3 11 
3 13 
3 14 
3 23 
3 25 
3 36 
3 44 
3 47 
3 54 
3 58 
3 64 
3 69 
3 74 
3 80 
3 84 
3 91 
3 94 
3 102 
3 104 
3 113 
3 114 
4 5 
4 6 
4 7 
4 8 
4 9 
4 10 
4 11 
4 14 
4 15 
4 24 
4 26 
4 34 
4 37 
4 48 
4 55 
4 59 
4 65 
4 70 
4 75 
4 81 
4 85 
4 92 
4 95 
4 103 
4 105 
4 114 
4 115 
5 6 
5 7 
5 8 
5 9 
5 10 
5 11 
5 15 
5 16 
5 25 
5 27 
5 35 
5 38 
5 45 
5 49 
5 60 
5 66 
5 71 
5 76 
5 82 
5 86 
5 93 
5 96 
5 104 
5 106 
5 115 
5 116 
6 7 
6 8 
6 9 
6 10 
6 11 
6 16 
6 17 
6 26 
6 28 
6 36 
6 39 
6 46 
6 50 
6 56 
6 61 
6 72 
6 77 
6 83 
6 87 
6 94 
6 97 
6 105 
6 107 
6 116 
6 117 
7 8 
7 9 
7 10 
7 11 
7 17 
7 18 
7 27 
7 29 
7 37 
7 40 
7 47 
7 51 
7 57 
7 62 
7 67 
7 73 
7 84 
7 88 
7 95 
7 98 
7 106 
7 108 
7 117 
7 118 
8 9 
8 10 
8 11 
8 18 
8 19 
8 28 
8 30 
8 38 
8 41 
8 48 
8 52 
8 58 
8 63 
8 68 
8 74 
8 78 
8 85 
8 96 
8 99 
8 107 
8 109 
8 118 
8 119 
9 10 
9 11 
9 19 
9 20 
9 29 
9 31 
9 39 
9 42 
9 49 
9 53 
9 59 
9 64 
9 69 
9 75 
9 79 
9 86 
9 89 
9 97 
9 108 
9 110 
9 119 
9 120 
10 11 
10 20 
10 21 
10 30 
10 32 
10 40 
10 43 
10 50 
10 54 
10 60 
10 65 
10 70 
10 76 
10 80 
10 87 
10 90 
10 98 
10 100 
10 109 
10 120 
10 121 
11 21 
11 22 
11 31 
11 33 
11 41 
11 44 
11 51 
11 55 
11 61 
11 66 
11 71 
11 77 
11 81 
11 88 
11 91 
11 99 
11 101 
11 110 
11 111 
11 121 
12 13 
12 14 
12 15 
12 16 
12 17 
12 18 
12 19 
12 20 
12 21 
12 22 
12 23 
12 33 
12 34 
12 43 
12 45 
12 53 
12 56 
12 63 
12 67 
12 73 
12 78 
12 83 
12 89 
12 93 
12 100 
12 103 
12 111 
12 113 
13 14 
13 15 
13 16 
13 17 
13 18 
13 19 
13 20 
13 21 
13 22 
13 23 
13 24 
13 35 
13 44 
13 46 
13 54 
13 57 
13 64 
13 68 
13 74 
13 79 
13 84 
13 90 
13 94 
13 101 
13 104 
13 112 
13 114 
14 15 
14 16 
14 17 
14 18 
14 19 
14 20 
14 21 
14 22 
14 24 
14 25 
14 34 
14 36 
14 47 
14 55 
14 58 
14 65 
14 69 
14 75 
14 80 
14 85 
14 91 
14 95 
14 102 
14 105 
14 113 
14 115 
15 16 
15 17 
15 18 
15 19 
15 20 
15 21 
15 22 
15 25 
15 26 
15 35 
15 37 
15 45 
15 48 
15 59 
15 66 
15 70 
15 76 
15 81 
15 86 
15 92 
15 96 
15 103 
15 106 
15 114 
15 116 
16 17 
16 18 
16 19 
16 20 
16 21 
16 22 
16 26 
16 27 
16 36 
16 38 
16 46 
16 49 
16 56 
16 60 
16 71 
16 77 
16 82 
16 87 
16 93 
16 97 
16 104 
16 107 
16 115 
16 117 
17 18 
17 19 
17 20 
17 21 
17 22 
17 27 
17 28 
17 37 
17 39 
17 47 
17 50 
17 57 
17 61 
17 67 
17 72 
17 83 
17 88 
17 94 
17 98 
17 105 
17 108 
17 116 
17 118 
18 19 
18 20 
18 21 
18 22 
18 28 
18 29 
18 38 
18 40 
18 48 
18 51 
18 58 
18 62 
18 68 
18 73 
18 78 
18 84 
18 95 
18 99 
18 106 
18 109 
18 117 
18 119 
19 20 
19 21 
19 22 
19 29 
19 30 
19 39 
19 41 
19 49 
19 52 
19 59 
19 63 
19 69 
19 74 
19 79 
19 85 
19 89 
19 96 
19 107 
19 110 
19 118 
19 120 
20 21 
20 22 
20 30 
20 31 
20 40 
20 42 
20 50 
20 53 
20 60 
20 64 
20 70 
20 75 
20 80 
20 86 
20 90 
20 97 
20 100 
20 108 
20 119 
20 121 
21 22 
21 31 
21 32 
21 41 
21 43 
21 51 
21 54 
21 61 
21 65 
21 71 
21 76 
21 81 
21 87 
21 91 
21 98 
21 101 
21 109 
21 111 
21 120 
22 32 
22 33 
22 42 
22 44 
22 52 
22 55 
22 62 
22 66 
22 72 
22 77 
22 82 
22 88 
22 92 
22 99 
22 102 
22 110 
22 112 
22 121 
23 24 
23 25 
23 26 
23 27 
23 28 
23 29 
23 30 
23 31 
23 32 
23 33 
23 34 
23 44 
23 45 
23 54 
23 56 
23 64 
23 67 
23 74 
23 78 
23 84 
23 89 
23 94 
23 100 
23 104 
23 111 
23 114 
24 25 
24 26 
24 27 
24 28 
24 29 
24 30 
24 31 
24 32 
24 33 
24 34 
24 35 
24 46 
24 55 
24 57 
24 65 
24 68 
24 75 
24 79 
24 85 
24 90 
24 95 
24 101 
24 105 
24 112 
24 115 
25 26 
25 27 
25 28 
25 29 
25 30 
25 31 
25 32 
25 33 
25 35 
25 36 
25 45 
25 47 
25 58 
25 66 
25 69 
25 76 
25 80 
25 86 
25 91 
25 96 
25 102 
25 106 
25 113 
25 116 
26 27 
26 28 
26 29 
26 30 
26 31 
26 32 
26 33 
26 36 
26 37 
26 46 
26 48 
26 56 
26 59 
26 70 
26 77 
26 81 
26 87 
26 92 
26 97 
26 103 
26 107 
26 114 
26 117 
27 28 
27 29 
27 30 
27 31 
27 32 
27 33 
27 37 
27 38 
27 47 
27 49 
27 57 
27 60 
27 67 
27 71 
27 82 
27 88 
27 93 
27 98 
27 104 
27 108 
27 115 
27 118 
28 29 
28 30 
28 31 
28 32 
28 33 
28 38 
28 39 
28 48 
28 50 
28 58 
28 61 
28 68 
28 72 
28 78 
28 83 
28 94 
28 99 
28 105 
28 109 
28 116 
28 119 
29 30 
29 31 
29 32 
29 33 
29 39 
29 40 
29 49 
29 51 
29 59 
29 62 
29 69 
29 73 
29 79 
29 84 
29 89 
29 95 
29 106 
29 110 
29 117 
29 120 
30 31 
30 32 
30 33 
30 40 
30 41 
30 50 
30 52 
30 60 
30 63 
30 70 
30 74 
30 80 
30 85 
30 90 
30 96 
30 100 
30 107 
30 118 
30 121 
31 32 
31 33 
31 41 
31 42 
31 51 
31 53 
31 61 
31 64 
31 71 
31 75 
31 81 
31 86 
31 91 
31 97 
31 101 
31 108 
31 111 
31 119 
32 33 
32 42 
32 43 
32 52 
32 54 
32 62 
32 65 
32 72 
32 76 
32 82 
32 87 
32 92 
32 98 
32 102 
32 109 
32 112 
32 120 
33 43 
33 44 
33 53 
33 55 
33 63 
33 66 
33 73 
33 77 
33 83 
33 88 
33 93 
33 99 
33 103 
33 110 
33 113 
33 121 
34 35 
34 36 
34 37 
34 38 
34 39 
34 40 
34 41 
34 42 
34 43 
34 44 
34 45 
34 55 
34 56 
34 65 
34 67 
34 75 
34 78 
34 85 
34 89 
34 95 
34 100 
34 105 
34 111 
34 115 
35 36 
35 37 
35 38 
35 39 
35 40 
35 41 
35 42 
35 43 
35 44 
35 45 
35 46 
35 57 
35 66 
35 68 
35 76 
35 79 
35 86 
35 90 
35 96 
35 101 
35 106 
35 112 
35 116 
36 37 
36 38 
36 39 
36 40 
36 41 
36 42 
36 43 
36 44 
36 46 
36 47 
36 56 
36 58 
36 69 
36 77 
36 80 
36 87 
36 91 
36 97 
36 102 
36 107 
36 113 
36 117 
37 38 
37 39 
37 40 
37 41 
37 42 
37 43 
37 44 
37 47 
37 48 
37 57 
37 59 
37 67 
37 70 
37 81 
37 88 
37 92 
37 98 
37 103 
37 108 
37 114 
37 118 
38 39 
38 40 
38 41 
38 42 
38 43 
38 44 
38 48 
38 49 
38 58 
38 60 
38 68 
38 71 
38 78 
38 82 
38 93 
38 99 
38 104 
38 109 
38 115 
38 119 
39 40 
39 41 
39 42 
39 43 
39 44 
39 49 
39 50 
39 59 
39 61 
39 69 
39 72 
39 79 
39 83 
39 89 
39 94 
39 105 
39 110 
39 116 
39 120 
40 41 
40 42 
40 43 
40 44 
40 50 
40 51 
40 60 
40 62 
40 70 
40 73 
40 80 
40 84 
40 90 
40 95 
40 100 
40 106 
40 117 
40 121 
41 42 
41 43 
41 44 
41 51 
41 52 
41 61 
41 63 
41 71 
41 74 
41 81 
41 85 
41 91 
41 96 
41 101 
41 107 
41 111 
41 118 
42 43 
42 44 
42 52 
42 53 
42 62 
42 64 
42 72 
42 75 
42 82 
42 86 
42 92 
42 97 
42 102 
42 108 
42 112 
42 119 
43 44 
43 53 
43 54 
43 63 
43 65 
43 73 
43 76 
43 83 
43 87 
43 93 
43 98 
43 103 
43 109 
43 113 
43 120 
44 54 
44 55 
44 64 
44 66 
44 74 
44 77 
44 84 
44 88 
44 94 
44 99 
44 104 
44 110 
44 114 
44 121 
45 46 
45 47 
45 48 
45 49 
45 50 
45 51 
45 52 
45 53 
45 54 
45 55 
45 56 
45 66 
45 67 
45 76 
45 78 
45 86 
45 89 
45 96 
45 100 
45 106 
45 111 
45 116 
46 47 
46 48 
46 49 
46 50 
46 51 
46 52 
46 53 
46 54 
46 55 
46 56 
46 57 
46 68 
46 77 
46 79 
46 87 
46 90 
46 97 
46 101 
46 107 
46 112 
46 117 
47 48 
47 49 
47 50 
47 51 
47 52 
47 53 
47 54 
47 55 
47 57 
47 58 
47 67 
47 69 
47 80 
47 88 
47 91 
47 98 
47 102 
47 108 
47 113 
47 118 
48 49 
48 50 
48 51 
48 52 
48 53 
48 54 
48 55 
48 58 
48 59 
48 68 
48 70 
48 78 
48 81 
48 92 
48 99 
48 103 
48 109 
48 114 
48 119 
49 50 
49 51 
49 52 
49 53 
49 54 
49 55 
49 59 
49 60 
49 69 
49 71 
49 79 
49 82 
49 89 
49 93 
49 104 
49 110 
49 115 
49 120 
50 51 
50 52 
50 53 
50 54 
50 55 
50 60 
50 61 
50 70 
50 72 
50 80 
50 83 
50 90 
50 94 
50 100 
50 105 
50 116 
50 121 
51 52 
51 53 
51 54 
51 55 
51 61 
51 62 
51 71 
51 73 
51 81 
51 84 
51 91 
51 95 
51 101 
51 106 
51 111 
51 117 
52 53 
52 54 
52 55 
52 62 
52 63 
52 72 
52 74 
52 82 
52 85 
52 92 
52 96 
52 102 
52 107 
52 112 
52 118 
53 54 
53 55 
53 63 
53 64 
53 73 
53 75 
53 83 
53 86 
53 93 
53 97 
53 103 
53 108 
53 113 
53 119 
54 55 
54 64 
54 65 
54 74 
54 76 
54 84 
54 87 
54 94 
54 98 
54 104 
54 109 
54 114 
54 120 
55 65 
55 66 
55 75 
55 77 
55 85 
55 88 
55 95 
55 99 
55 105 
55 110 
55 115 
55 121 
56 57 
56 58 
56 59 
56 60 
56 61 
56 62 
56 63 
56 64 
56 65 
56 66 
56 67 
56 77 
56 78 
56 87 
56 89 
56 97 
56 100 
56 107 
56 111 
56 117 
57 58 
57 59 
57 60 
57 61 
57 62 
57 63 
57 64 
57 65 
57 66 
57 67 
57 68 
57 79 
57 88 
57 90 
57 98 
57 101 
57 108 
57 112 
57 118 
58 59 
58 60 
58 61 
58 62 
58 63 
58 64 
58 65 
58 66 
58 68 
58 69 
58 78 
58 80 
58 91 
58 99 
58 102 
58 109 
58 113 
58 119 
59 60 
59 61 
59 62 
59 63 
59 64 
59 65 
59 66 
59 69 
59 70 
59 79 
59 81 
59 89 
59 92 
59 103 
59 110 
59 114 
59 120 
60 61 
60 62 
60 63 
60 64 
60 65 
60 66 
60 70 
60 71 
60 80 
60 82 
60 90 
60 93 
60 100 
60 104 
60 115 
60 121 
61 62 
61 63 
61 64 
61 65 
61 66 
61 71 
61 72 
61 81 
61 83 
61 91 
61 94 
61 101 
61 105 
61 111 
61 116 
62 63 
62 64 
62 65 
62 66 
62 72 
62 73 
62 82 
62 84 
62 92 
62 95 
62 102 
62 106 
62 112 
62 117 
63 64 
63 65 
63 66 
63 73 
63 74 
63 83 
63 85 
63 93 
63 96 
63 103 
63 107 
63 113 
63 118 
64 65 
64 66 
64 74 
64 75 
64 84 
64 86 
64 94 
64 97 
64 104 
64 108 
64 114 
64 119 
65 66 
65 75 
65 76 
65 85 
65 87 
65 95 
65 98 
65 105 
65 109 
65 115 
65 120 
66 76 
66 77 
66 86 
66 88 
66 96 
66 99 
66 106 
66 110 
66 116 
66 121 
67 68 
67 69 
67 70 
67 71 
67 72 
67 73 
67 74 
67 75 
67 76 
67 77 
67 78 
67 88 
67 89 
67 98 
67 100 
67 108 
67 111 
67 118 
68 69 
68 70 
68 71 
68 72 
68 73 
68 74 
68 75 
68 76 
68 77 
68 78 
68 79 
68 90 
68 99 
68 101 
68 109 
68 112 
68 119 
69 70 
69 71 
69 72 
69 73 
69 74 
69 75 
69 76 
69 77 
69 79 
69 80 
69 89 
69 91 
69 102 
69 110 
69 113 
69 120 
70 71 
70 72 
70 73 
70 74 
70 75 
70 76 
70 77 
70 80 
70 81 
70 90 
70 92 
70 100 
70 103 
70 114 
70 121 
71 72 
71 73 
71 74 
71 75 
71 76 
71 77 
71 81 
71 82 
71 91 
71 93 
71 101 
71 104 
71 111 
71 115 
72 73 
72 74 
72 75 
72 76 
72 77 
72 82 
72 83 
72 92 
72 94 
72 102 
72 105 
72 112 
72 116 
73 74 
73 75 
73 76 
73 77 
73 83 
73 84 
73 93 
73 95 
73 103 
73 106 
73 113 
73 117 
74 75 
74 76 
74 77 
74 84 
74 85 
74 94 
74 96 
74 104 
74 107 
74 114 
74 118 
75 76 
75 77 
75 85 
75 86 
75 95 
75 97 
75 105 
75 108 
75 115 
75 119 
76 77 
76 86 
76 87 
76 96 
76 98 
76 106 
76 109 
76 116 
76 120 
77 87 
77 88 
77 97 
77 99 
77 107 
77 110 
77 117 
77 121 
78 79 
78 80 
78 81 
78 82 
78 83 
78 84 
78 85 
78 86 
78 87 
78 88 
78 89 
78 99 
78 100 
78 109 
78 111 
78 119 
79 80 
79 81 
79 82 
79 83 
79 84 
79 85 
79 86 
79 87 
79 88 
79 89 
79 90 
79 101 
79 110 
79 112 
79 120 
80 81 
80 82 
80 83 
80 84 
80 85 
80 86 
80 87 
80 88 
80 90 
80 91 
80 100 
80 102 
80 113 
80 121 
81 82 
81 83 
81 84 
81 85 
81 86 
81 87 
81 88 
81 91 
81 92 
81 101 
81 103 
81 111 
81 114 
82 83 
82 84 
82 85 
82 86 
82 87 
82 88 
82 92 
82 93 
82 102 
82 104 
82 112 
82 115 
83 84 
83 85 
83 86 
83 87 
83 88 
83 93 
83 94 
83 103 
83 105 
83 113 
83 116 
84 85 
84 86 
84 87 
84 88 
84 94 
84 95 
84 104 
84 106 
84 114 
84 117 
85 86 
85 87 
85 88 
85 95 
85 96 
85 105 
85 107 
85 115 
85 118 
86 87 
86 88 
86 96 
86 97 
86 106 
86 108 
86 116 
86 119 
87 88 
87 97 
87 98 
87 107 
87 109 
87 117 
87 120 
88 98 
88 99 
88 108 
88 110 
88 118 
88 121 
89 90 
89 91 
89 92 
89 93 
89 94 
89 95 
89 96 
89 97 
89 98 
89 99 
89 100 
89 110 
89 111 
89 120 
90 91 
90 92 
90 93 
90 94 
90 95 
90 96 
90 97 
90 98 
90 99 
90 100 
90 101 
90 112 
90 121 
91 92 
91 93 
91 94 
91 95 
91 96 
91 97 
91 98 
91 99 
91 101 
91 102 
91 111 
91 113 
92 93 
92 94 
92 95 
92 96 
92 97 
92 98 
92 99 
92 102 
92 103 
92 112 
92 114 
93 94 
93 95 
93 96 
93 97 
93 98 
93 99 
93 103 
93 104 
93 113 
93 115 
94 95 
94 96 
94 97 
94 98 
94 99 
94 104 
94 105 
94 114 
94 116 
95 96 
95 97 
95 98 
95 99 
95 105 
95 106 
95 115 
95 117 
96 97 
96 98 
96 99 
96 106 
96 107 
96 116 
96 118 
97 98 
97 99 
97 107 
97 108 
97 117 
97 119 
98 99 
98 108 
98 109 
98 118 
98 120 
99 109 
99 110 
99 119 
99 121 
100 101 
100 102 
100 103 
100 104 
100 105 
100 106 
100 107 
100 108 
100 109 
100 110 
100 111 
100 121 
101 102 
101 103 
101 104 
101 105 
101 106 
101 107 
101 108 
101 109 
101 110 
101 111 
101 112 
102 103 
102 104 
102 105 
102 106 
102 107 
102 108 
102 109 
102 110 
102 112 
102 113 
103 104 
103 105 
103 106 
103 107 
103 108 
103 109 
103 110 
103 113 
103 114 
104 105 
104 106 
104 107 
104 108 
104 109 
104 110 
104 114 
104 115 
105 106 
105 107 
105 108 
105 109 
105 110 
105 115 
105 116 
106 107 
106 108 
106 109 
106 110 
106 116 
106 117 
107 108 
107 109 
107 110 
107 117 
107 118 
108 109 
108 110 
108 118 
108 119 
109 110 
109 119 
109 120 
110 120 
110 121 
111 112 
111 113 
111 114 
111 115 
111 116 
111 117 
111 118 
111 119 
111 120 
111 121 
112 113 
112 114 
112 115 
112 116 
112 117 
112 118 
112 119 
112 120 
112 121 
113 114 
113 115 
113 116 
113 117 
113 118 
113 119 
113 120 
113 121 
114 115 
114 116 
114 117 
114 118 
114 119 
114 120 
114 121 
115 116 
115 117 
115 118 
115 119 
115 120 
115 121 
116 117 
116 118 
116 119 
116 120 
116 121 
117 118 
117 119 
117 120 
117 121 
118 119 
118 120 
118 121 
119 120 
119 121 
120 121 
